************************************************************************
file with basedata            : mm43_.bas
initial value random generator: 223261859
************************************************************************
projects                      :  1
jobs (incl. supersource/sink ):  12
horizon                       :  79
RESOURCES
  - renewable                 :  2   R
  - nonrenewable              :  2   N
  - doubly constrained        :  0   D
************************************************************************
PROJECT INFORMATION:
pronr.  #jobs rel.date duedate tardcost  MPM-Time
    1     10      0       17        9       17
************************************************************************
PRECEDENCE RELATIONS:
jobnr.    #modes  #successors   successors
   1        1          3           2   3   4
   2        3          3           5   7   9
   3        3          1          11
   4        3          3           6   7  10
   5        3          2           6  10
   6        3          1           8
   7        3          1           8
   8        3          1          11
   9        3          1          12
  10        3          1          12
  11        3          1          12
  12        1          0        
************************************************************************
REQUESTS/DURATIONS:
jobnr. mode duration  R 1  R 2  N 1  N 2
------------------------------------------------------------------------
  1      1     0       0    0    0    0
  2      1     4       7    9    0    7
         2     6       5    7    5    0
         3     7       4    6    0    7
  3      1     7       5    8    6    0
         2     9       3    6    6    0
         3    10       3    4    0    8
  4      1     2       5    7    0    4
         2     4       4    5    6    0
         3     9       4    1    3    0
  5      1     3       3    6    9    0
         2     5       2    5    7    0
         3     8       1    3    7    0
  6      1     5       7    6    0    6
         2     5       9    6    5    0
         3    10       4    3    0    6
  7      1     2       8    6    6    0
         2     7       5    5    0    8
         3     8       5    4    0    7
  8      1     3       6    4    0    5
         2     3       7    5    3    0
         3     6       3    3    2    0
  9      1     3       5    5    5    0
         2     6       3    4    4    0
         3     8       2    4    0    9
 10      1     5       9    6    0   10
         2     8       4    4    0   10
         3     9       4    4    9    0
 11      1     2       5    9    8    0
         2     3       3    7    0    9
         3     4       2    3    0    9
 12      1     0       0    0    0    0
************************************************************************
RESOURCEAVAILABILITIES:
  R 1  R 2  N 1  N 2
   13   16   45   46
************************************************************************
